(set-info :smt-lib-version 2.6)
(set-logic UFLIA)
(set-info :source |Benchmarks from the paper: "Extending Sledgehammer with SMT Solvers" by Jasmin Blanchette, Sascha Bohme, and Lawrence C. Paulson, CADE 2011.  Translated to SMT2 by Andrew Reynolds and Morgan Deters.|)
(set-info :category "industrial")
(set-info :status unknown)
(declare-sort S1 0)
(declare-sort S2 0)
(declare-sort S3 0)
(declare-sort S4 0)
(declare-sort S5 0)
(declare-sort S6 0)
(declare-sort S7 0)
(declare-sort S8 0)
(declare-fun f1 () S1)
(declare-fun f2 () S1)
(declare-fun f3 (S3 S2) S1)
(declare-fun f4 (S4 S3) S3)
(declare-fun f5 (S2) S4)
(declare-fun f6 (S2 S3) S1)
(declare-fun f7 (S2) S4)
(declare-fun f8 () S3)
(declare-fun f9 (S3 S3) S1)
(declare-fun f10 () S3)
(declare-fun f11 () S3)
(declare-fun f12 (S3 S3) S1)
(declare-fun f13 (S5) S3)
(declare-fun f14 () S3)
(declare-fun f15 (S3 S3) S1)
(declare-fun f16 (S2) S4)
(declare-fun f17 () S1)
(declare-fun f18 (S7 Int) S5)
(declare-fun f19 () S7)
(declare-fun f20 (S8 S5) Int)
(declare-fun f21 () S8)
(declare-fun f22 (S3) S3)
(assert (not (= f1 f2)))
(assert (forall ((?v0 S2) (?v1 S3) (?v2 S2)) (= (= (f3 (f4 (f5 ?v0) ?v1) ?v2) f1) (or (= ?v2 ?v0) (= (f6 ?v2 ?v1) f1)))))
(assert (forall ((?v0 S2) (?v1 S3) (?v2 S2)) (= (= (f3 (f4 (f7 ?v0) ?v1) ?v2) f1) (=> (not (= ?v2 ?v0)) (= (f3 ?v1 ?v2) f1)))))
(assert (forall ((?v0 S2)) (= (= (f3 f8 ?v0) f1) false)))
(assert (not (= (f9 f10 f11) f1)))
(assert (= (f12 f10 f11) f1))
(assert (forall ((?v0 S3) (?v1 S3) (?v2 S3)) (=> (= (f12 ?v0 ?v1) f1) (=> (= (f12 ?v2 ?v0) f1) (= (f12 ?v2 ?v1) f1)))))
(assert (forall ((?v0 S3) (?v1 S3)) (= (= (f9 ?v0 ?v1) f1) (forall ((?v2 S5)) (=> (forall ((?v3 S2)) (=> (= (f6 ?v3 ?v0) f1) (= (f3 (f13 ?v2) ?v3) f1))) (forall ((?v3 S2)) (=> (= (f6 ?v3 ?v1) f1) (= (f3 (f13 ?v2) ?v3) f1))))))))
(assert (forall ((?v0 S3)) (= (f12 ?v0 f14) f1)))
(assert (forall ((?v0 S3) (?v1 S3)) (=> (= (f15 ?v0 ?v1) f1) (= (f12 ?v1 ?v0) f1))))
(assert (forall ((?v0 S3) (?v1 S3) (?v2 S3)) (=> (= (f12 ?v0 ?v1) f1) (=> (= (f15 ?v2 ?v1) f1) (= (f12 ?v0 ?v2) f1)))))
(assert (forall ((?v0 S3) (?v1 S3) (?v2 S3)) (=> (= (f12 ?v0 ?v1) f1) (=> (= (f15 ?v0 ?v2) f1) (= (f12 ?v2 ?v1) f1)))))
(assert (forall ((?v0 S3) (?v1 S2) (?v2 S3)) (let ((?v_0 (f16 ?v1))) (=> (= (f12 ?v0 (f4 ?v_0 f14)) f1) (=> (= (f12 ?v0 ?v2) f1) (= (f12 ?v0 (f4 ?v_0 ?v2)) f1))))))
(assert (forall ((?v0 S3) (?v1 S2) (?v2 S3)) (let ((?v_0 (f16 ?v1))) (=> (= (f12 ?v0 (f4 ?v_0 ?v2)) f1) (and (= (f12 ?v0 (f4 ?v_0 f14)) f1) (= (f12 ?v0 ?v2) f1))))))
(assert (= (= f17 f1) (exists ((?v0 S6) (?v1 S6)) (not (= ?v0 ?v1)))))
(assert (=> (= f17 f1) (forall ((?v0 S6)) (=> (forall ((?v1 S6)) (= ?v1 ?v0)) false))))
(assert (forall ((?v0 S3) (?v1 S5)) (=> (forall ((?v2 S2)) (=> (= (f6 ?v2 ?v0) f1) (= (f3 (f13 (f18 f19 (+ (f20 f21 ?v1) 1))) ?v2) f1))) (forall ((?v2 S2)) (=> (= (f6 ?v2 ?v0) f1) (= (f3 (f13 ?v1) ?v2) f1))))))
(assert (forall ((?v0 S5) (?v1 S2)) (=> (= (f3 (f13 (f18 f19 (+ (f20 f21 ?v0) 1))) ?v1) f1) (= (f3 (f13 ?v0) ?v1) f1))))
(assert (forall ((?v0 S3)) (= (f15 f14 ?v0) f1)))
(assert (forall ((?v0 S3) (?v1 S2)) (let ((?v_0 (f4 (f16 ?v1) f14))) (=> (= (f15 ?v0 ?v_0) f1) (or (= ?v0 f14) (= ?v0 ?v_0))))))
(assert (forall ((?v0 S3) (?v1 S3) (?v2 S2)) (=> (= (f15 ?v0 ?v1) f1) (=> (= (f6 ?v2 ?v0) f1) (= (f6 ?v2 ?v1) f1)))))
(assert (forall ((?v0 S3) (?v1 S3)) (=> (= (f15 ?v0 ?v1) f1) (=> (= (f15 ?v1 ?v0) f1) (= ?v0 ?v1)))))
(assert (forall ((?v0 S2) (?v1 S2) (?v2 S3)) (=> (= (f6 ?v0 (f4 (f16 ?v1) ?v2)) f1) (=> (=> (= ?v0 ?v1) false) (=> (=> (= (f6 ?v0 ?v2) f1) false) false)))))
(assert (forall ((?v0 S2) (?v1 S3) (?v2 S2)) (=> (=> (not (= (f6 ?v0 ?v1) f1)) (= ?v0 ?v2)) (= (f6 ?v0 (f4 (f16 ?v2) ?v1)) f1))))
(assert (forall ((?v0 S2)) (=> (= (f6 ?v0 f14) f1) false)))
(assert (forall ((?v0 S3)) (= (f15 ?v0 ?v0) f1)))
(assert (forall ((?v0 S3) (?v1 S2)) (= (f15 ?v0 (f4 (f16 ?v1) ?v0)) f1)))
(assert (forall ((?v0 S2) (?v1 S3) (?v2 S3)) (= (= (f15 (f4 (f16 ?v0) ?v1) ?v2) f1) (and (= (f6 ?v0 ?v2) f1) (= (f15 ?v1 ?v2) f1)))))
(assert (forall ((?v0 S2) (?v1 S3) (?v2 S3)) (=> (not (= (f6 ?v0 ?v1) f1)) (= (= (f15 ?v1 (f4 (f16 ?v0) ?v2)) f1) (= (f15 ?v1 ?v2) f1)))))
(assert (forall ((?v0 S3) (?v1 S3) (?v2 S3)) (=> (= (f15 ?v0 ?v1) f1) (=> (= (f15 ?v2 ?v0) f1) (= (f15 ?v2 ?v1) f1)))))
(assert (forall ((?v0 S3) (?v1 S3)) (=> (= (f15 ?v0 ?v1) f1) (=> (= (f15 ?v1 ?v0) f1) (= ?v1 ?v0)))))
(assert (forall ((?v0 S3) (?v1 S3) (?v2 S3)) (=> (= (f15 ?v0 ?v1) f1) (=> (= (f15 ?v1 ?v2) f1) (= (f15 ?v0 ?v2) f1)))))
(assert (forall ((?v0 S3) (?v1 S3)) (=> (= (f15 ?v0 ?v1) f1) (=> (= (f15 ?v1 ?v0) f1) (= ?v0 ?v1)))))
(assert (forall ((?v0 S3) (?v1 S3) (?v2 S3)) (=> (= (f15 ?v0 ?v1) f1) (=> (= ?v0 ?v2) (= (f15 ?v2 ?v1) f1)))))
(assert (forall ((?v0 S3) (?v1 S3) (?v2 S3)) (=> (= (f15 ?v0 ?v1) f1) (=> (= ?v1 ?v2) (= (f15 ?v0 ?v2) f1)))))
(assert (forall ((?v0 S3) (?v1 S3) (?v2 S3)) (=> (= ?v0 ?v1) (=> (= (f15 ?v2 ?v1) f1) (= (f15 ?v2 ?v0) f1)))))
(assert (forall ((?v0 S3) (?v1 S3) (?v2 S3)) (=> (= ?v0 ?v1) (=> (= (f15 ?v1 ?v2) f1) (= (f15 ?v0 ?v2) f1)))))
(assert (forall ((?v0 S3) (?v1 S3)) (=> (= (f15 ?v0 ?v1) f1) (= (= (f15 ?v1 ?v0) f1) (= ?v1 ?v0)))))
(assert (forall ((?v0 S3) (?v1 S3)) (=> (= ?v0 ?v1) (= (f15 ?v0 ?v1) f1))))
(assert (forall ((?v0 S3) (?v1 S3)) (= (= ?v0 ?v1) (and (= (f15 ?v0 ?v1) f1) (= (f15 ?v1 ?v0) f1)))))
(assert (forall ((?v0 S3) (?v1 S2)) (=> (= ?v0 f14) (not (= (f6 ?v1 ?v0) f1)))))
(assert (forall ((?v0 S3)) (= (= (f22 ?v0) f14) (forall ((?v1 S2)) (not (= (f3 ?v0 ?v1) f1))))))
(assert (forall ((?v0 S2)) (= (= (f6 ?v0 f14) f1) false)))
(assert (forall ((?v0 S3)) (= (= f14 (f22 ?v0)) (forall ((?v1 S2)) (not (= (f3 ?v0 ?v1) f1))))))
(assert (forall ((?v0 S3)) (= (forall ((?v1 S2)) (=> (= (f6 ?v1 f14) f1) (= (f3 ?v0 ?v1) f1))) true)))
(assert (forall ((?v0 S3)) (= (exists ((?v1 S2)) (and (= (f6 ?v1 f14) f1) (= (f3 ?v0 ?v1) f1))) false)))
(assert (forall ((?v0 S3)) (= (exists ((?v1 S2)) (= (f6 ?v1 ?v0) f1)) (not (= ?v0 f14)))))
(assert (forall ((?v0 S3)) (= (forall ((?v1 S2)) (not (= (f6 ?v1 ?v0) f1))) (= ?v0 f14))))
(assert (= f14 (f22 f8)))
(assert (forall ((?v0 S2) (?v1 S3)) (=> (= (f6 ?v0 ?v1) f1) (= (f4 (f16 ?v0) ?v1) ?v1))))
(assert (forall ((?v0 S2) (?v1 S3) (?v2 S2)) (=> (= (f6 ?v0 ?v1) f1) (= (f6 ?v0 (f4 (f16 ?v2) ?v1)) f1))))
(assert (forall ((?v0 S2) (?v1 S3) (?v2 S3)) (let ((?v_0 (f16 ?v0))) (=> (not (= (f6 ?v0 ?v1) f1)) (=> (not (= (f6 ?v0 ?v2) f1)) (= (= (f4 ?v_0 ?v1) (f4 ?v_0 ?v2)) (= ?v1 ?v2)))))))
(assert (forall ((?v0 S2) (?v1 S3) (?v2 S2)) (= (= (f3 (f4 (f16 ?v0) ?v1) ?v2) f1) (or (= ?v0 ?v2) (= (f3 ?v1 ?v2) f1)))))
(assert (forall ((?v0 S2) (?v1 S2) (?v2 S3)) (= (= (f6 ?v0 (f4 (f16 ?v1) ?v2)) f1) (or (= ?v0 ?v1) (= (f6 ?v0 ?v2) f1)))))
(assert (forall ((?v0 S2) (?v1 S2) (?v2 S3)) (let ((?v_1 (f16 ?v0)) (?v_0 (f16 ?v1))) (= (f4 ?v_1 (f4 ?v_0 ?v2)) (f4 ?v_0 (f4 ?v_1 ?v2))))))
(assert (forall ((?v0 S2) (?v1 S3)) (let ((?v_0 (f16 ?v0))) (let ((?v_1 (f4 ?v_0 ?v1))) (= (f4 ?v_0 ?v_1) ?v_1)))))
(assert (forall ((?v0 S2) (?v1 S3)) (= (f4 (f16 ?v0) (f22 ?v1)) (f22 (f4 (f7 ?v0) ?v1)))))
(assert (forall ((?v0 S2) (?v1 S3)) (= (f4 (f16 ?v0) ?v1) (f22 (f4 (f5 ?v0) ?v1)))))
(assert (forall ((?v0 S2) (?v1 S3)) (= (f6 ?v0 (f4 (f16 ?v0) ?v1)) f1)))
(assert (forall ((?v0 S3) (?v1 S3)) (=> (= ?v0 ?v1) (=> (=> (= (f15 ?v0 ?v1) f1) (=> (= (f15 ?v1 ?v0) f1) false)) false))))
(assert (forall ((?v0 S3) (?v1 S3) (?v2 S3)) (=> (= (f15 ?v0 ?v1) f1) (=> (= (f15 ?v1 ?v2) f1) (= (f15 ?v0 ?v2) f1)))))
(assert (forall ((?v0 S3) (?v1 S3) (?v2 S2)) (=> (= (f15 ?v0 ?v1) f1) (=> (= (f6 ?v2 ?v0) f1) (= (f6 ?v2 ?v1) f1)))))
(assert (forall ((?v0 S2) (?v1 S3) (?v2 S3)) (=> (= (f6 ?v0 ?v1) f1) (=> (= (f15 ?v1 ?v2) f1) (= (f6 ?v0 ?v2) f1)))))
(assert (forall ((?v0 S5)) (= (f18 f19 (f20 f21 ?v0)) ?v0)))
(assert (forall ((?v0 Int)) (=> (<= 0 ?v0) (= (f20 f21 (f18 f19 ?v0)) ?v0))))
(assert (forall ((?v0 Int)) (=> (< ?v0 0) (= (f20 f21 (f18 f19 ?v0)) 0))))
(check-sat)
(exit)
